HUN,8,6,308
3,22,2,25,0,26,1,25,5,26,4,28
3,24,4,21,0,28,1,27,5,29,2,29
2,24,5,24,3,25,0,28,1,28,4,28
2,23,5,29,3,22,0,26,4,23,1,21
1,25,0,24,2,22,3,21,5,25,4,22
0,27,2,26,1,24,5,24,3,25,4,28
3,27,4,28,5,25,1,22,2,26,0,24
0,25,4,28,5,29,2,21,1,30,3,27
